# hf/6-31G* pop=full nosymm

 hf/6-31G* opted

0 1
 B                 0.000000    0.000000   -0.947107
 H                 1.170832    0.000000   -1.246766
 H                -0.585416    1.013970   -1.246766
 H                -0.585416   -1.013970   -1.246766

