 #P hf/6-31G* nosymm guess=cards

Please check this file to ensure validity

  0  1
N     0.00000000    0.00000000    0.74008000
H     0.46899700   -0.81232700    1.09842500
H    -0.93799500    0.00000000    1.09842500
H     0.46899800    0.81232700    1.09842500
B     0.00000000    0.00000000   -0.94710700
H     1.17083200    0.00000000   -1.24676600
H    -0.58541600    1.01397000   -1.24676600
H    -0.58541600   -1.01397000   -1.24676600

5(E16.5)
-1
! Orbital:     1 Occ:  2.000000 from fragment   1
     0.99495E+00     0.24830E-01     0.00000E+00     0.00000E+00     0.14800E-02
    -0.15100E-02     0.00000E+00     0.00000E+00    -0.86000E-03    -0.35300E-02
    -0.35300E-02    -0.33600E-02     0.00000E+00     0.00000E+00     0.00000E+00
     0.22000E-03     0.54000E-03     0.22000E-03     0.54000E-03     0.22000E-03
     0.54000E-03     0.00000E+00     0.00000E+00     0.00000E+00     0.00000E+00
     0.00000E+00     0.00000E+00     0.00000E+00     0.00000E+00     0.00000E+00
     0.00000E+00     0.00000E+00     0.00000E+00     0.00000E+00     0.00000E+00
     0.00000E+00     0.00000E+00     0.00000E+00     0.00000E+00     0.00000E+00
     0.00000E+00     0.00000E+00
! Orbital:     2 Occ:  2.000000 from fragment   1
    -0.19776E+00     0.41077E+00     0.00000E+00     0.00000E+00     0.85770E-01
     0.42910E+00     0.00000E+00     0.00000E+00     0.46420E-01     0.15360E-01
     0.15360E-01    -0.72000E-03     0.00000E+00     0.00000E+00     0.00000E+00
     0.13715E+00     0.10120E-01     0.13715E+00     0.10120E-01     0.13715E+00
     0.10120E-01     0.00000E+00     0.00000E+00     0.00000E+00     0.00000E+00
     0.00000E+00     0.00000E+00     0.00000E+00     0.00000E+00     0.00000E+00
     0.00000E+00     0.00000E+00     0.00000E+00     0.00000E+00     0.00000E+00
     0.00000E+00     0.00000E+00     0.00000E+00     0.00000E+00     0.00000E+00
     0.00000E+00     0.00000E+00
! Orbital:     3 Occ:  2.000000 from fragment   1
     0.00000E+00     0.00000E+00     0.47045E+00     0.41810E-01     0.00000E+00
     0.00000E+00     0.27732E+00     0.24650E-01     0.00000E+00    -0.21600E-01
     0.21600E-01     0.00000E+00     0.22200E-02     0.38120E-01     0.33900E-02
     0.11671E+00     0.68280E-01    -0.27590E+00    -0.16141E+00     0.15919E+00
     0.93130E-01     0.00000E+00     0.00000E+00     0.00000E+00     0.00000E+00
     0.00000E+00     0.00000E+00     0.00000E+00     0.00000E+00     0.00000E+00
     0.00000E+00     0.00000E+00     0.00000E+00     0.00000E+00     0.00000E+00
     0.00000E+00     0.00000E+00     0.00000E+00     0.00000E+00     0.00000E+00
     0.00000E+00     0.00000E+00
! Orbital:     4 Occ:  2.000000 from fragment   1
     0.00000E+00     0.00000E+00    -0.41810E-01     0.47045E+00     0.00000E+00
     0.00000E+00    -0.24650E-01     0.27732E+00     0.00000E+00     0.19200E-02
    -0.19200E-02     0.00000E+00     0.24940E-01    -0.33900E-02     0.38120E-01
    -0.25119E+00    -0.14696E+00     0.24520E-01     0.14350E-01     0.22667E+00
     0.13261E+00     0.00000E+00     0.00000E+00     0.00000E+00     0.00000E+00
     0.00000E+00     0.00000E+00     0.00000E+00     0.00000E+00     0.00000E+00
     0.00000E+00     0.00000E+00     0.00000E+00     0.00000E+00     0.00000E+00
     0.00000E+00     0.00000E+00     0.00000E+00     0.00000E+00     0.00000E+00
     0.00000E+00     0.00000E+00
! Orbital:     5 Occ:  2.000000 from fragment   1
     0.61120E-01    -0.14362E+00     0.00000E+00     0.00000E+00     0.55727E+00
    -0.26097E+00     0.00000E+00     0.00000E+00     0.49561E+00    -0.84100E-02
    -0.84100E-02     0.31140E-01     0.00000E+00     0.00000E+00     0.00000E+00
     0.62840E-01     0.45450E-01     0.62840E-01     0.45450E-01     0.62840E-01
     0.45450E-01     0.00000E+00     0.00000E+00     0.00000E+00     0.00000E+00
     0.00000E+00     0.00000E+00     0.00000E+00     0.00000E+00     0.00000E+00
     0.00000E+00     0.00000E+00     0.00000E+00     0.00000E+00     0.00000E+00
     0.00000E+00     0.00000E+00     0.00000E+00     0.00000E+00     0.00000E+00
     0.00000E+00     0.00000E+00
! Orbital:     6 Occ:  2.000000 from fragment   2
     0.00000E+00     0.00000E+00     0.00000E+00     0.00000E+00     0.00000E+00
     0.00000E+00     0.00000E+00     0.00000E+00     0.00000E+00     0.00000E+00
     0.00000E+00     0.00000E+00     0.00000E+00     0.00000E+00     0.00000E+00
     0.00000E+00     0.00000E+00     0.00000E+00     0.00000E+00     0.00000E+00
     0.00000E+00     0.99626E+00     0.23560E-01     0.00000E+00     0.00000E+00
     0.11300E-02    -0.11600E-01     0.00000E+00     0.00000E+00     0.22000E-03
     0.60000E-04     0.60000E-04    -0.90000E-03     0.00000E+00     0.00000E+00
     0.00000E+00    -0.11000E-03     0.23300E-02    -0.11000E-03     0.23300E-02
    -0.11000E-03     0.23300E-02
! Orbital:     7 Occ:  2.000000 from fragment   2
     0.00000E+00     0.00000E+00     0.00000E+00     0.00000E+00     0.00000E+00
     0.00000E+00     0.00000E+00     0.00000E+00     0.00000E+00     0.00000E+00
     0.00000E+00     0.00000E+00     0.00000E+00     0.00000E+00     0.00000E+00
     0.00000E+00     0.00000E+00     0.00000E+00     0.00000E+00     0.00000E+00
     0.00000E+00    -0.18788E+00     0.30436E+00     0.00000E+00     0.00000E+00
    -0.54480E-01     0.24536E+00     0.00000E+00     0.00000E+00     0.58900E-02
     0.32470E-01     0.32470E-01    -0.67000E-02     0.00000E+00     0.00000E+00
     0.00000E+00     0.16044E+00     0.12557E+00     0.16044E+00     0.12557E+00
     0.16044E+00     0.12557E+00
! Orbital:     8 Occ:  2.000000 from fragment   2
     0.00000E+00     0.00000E+00     0.00000E+00     0.00000E+00     0.00000E+00
     0.00000E+00     0.00000E+00     0.00000E+00     0.00000E+00     0.00000E+00
     0.00000E+00     0.00000E+00     0.00000E+00     0.00000E+00     0.00000E+00
     0.00000E+00     0.00000E+00     0.00000E+00     0.00000E+00     0.00000E+00
     0.00000E+00     0.00000E+00     0.00000E+00     0.40250E+00     0.00000E+00
     0.00000E+00     0.00000E+00     0.14772E+00     0.00000E+00     0.00000E+00
     0.33910E-01    -0.33910E-01     0.00000E+00     0.00000E+00    -0.14050E-01
     0.00000E+00     0.27020E+00     0.30045E+00    -0.13510E+00    -0.15023E+00
    -0.13510E+00    -0.15023E+00
! Orbital:     9 Occ:  2.000000 from fragment   2
     0.00000E+00     0.00000E+00     0.00000E+00     0.00000E+00     0.00000E+00
     0.00000E+00     0.00000E+00     0.00000E+00     0.00000E+00     0.00000E+00
     0.00000E+00     0.00000E+00     0.00000E+00     0.00000E+00     0.00000E+00
     0.00000E+00     0.00000E+00     0.00000E+00     0.00000E+00     0.00000E+00
     0.00000E+00     0.00000E+00     0.00000E+00     0.00000E+00     0.40250E+00
     0.00000E+00     0.00000E+00     0.00000E+00     0.14772E+00     0.00000E+00
     0.00000E+00     0.00000E+00     0.00000E+00    -0.39160E-01     0.00000E+00
    -0.14050E-01     0.00000E+00     0.00000E+00     0.23400E+00     0.26020E+00
    -0.23400E+00    -0.26020E+00
! Orbital:    10 Occ:  0.000000 from fragment   1
    -0.12633E+00     0.10265E+00     0.00000E+00     0.00000E+00     0.13994E+00
     0.20046E+01     0.00000E+00     0.00000E+00     0.47469E+00    -0.39400E-01
    -0.39400E-01    -0.40600E-01     0.00000E+00     0.00000E+00     0.00000E+00
    -0.27950E-01    -0.98348E+00    -0.27950E-01    -0.98348E+00    -0.27950E-01
    -0.98348E+00     0.00000E+00     0.00000E+00     0.00000E+00     0.00000E+00
     0.00000E+00     0.00000E+00     0.00000E+00     0.00000E+00     0.00000E+00
     0.00000E+00     0.00000E+00     0.00000E+00     0.00000E+00     0.00000E+00
     0.00000E+00     0.00000E+00     0.00000E+00     0.00000E+00     0.00000E+00
     0.00000E+00     0.00000E+00
! Orbital:    11 Occ:  0.000000 from fragment   1
     0.00000E+00     0.00000E+00     0.30790E+00     0.11766E+00     0.00000E+00
     0.00000E+00     0.10600E+01     0.40507E+00     0.00000E+00     0.15500E-02
    -0.15500E-02     0.00000E+00    -0.68000E-03     0.15370E-01     0.58700E-02
    -0.68600E-02    -0.28384E+00     0.40550E-01     0.16788E+01    -0.33690E-01
    -0.13950E+01     0.00000E+00     0.00000E+00     0.00000E+00     0.00000E+00
     0.00000E+00     0.00000E+00     0.00000E+00     0.00000E+00     0.00000E+00
     0.00000E+00     0.00000E+00     0.00000E+00     0.00000E+00     0.00000E+00
     0.00000E+00     0.00000E+00     0.00000E+00     0.00000E+00     0.00000E+00
     0.00000E+00     0.00000E+00
! Orbital:    12 Occ:  0.000000 from fragment   1
     0.00000E+00     0.00000E+00    -0.11766E+00     0.30790E+00     0.00000E+00
     0.00000E+00    -0.40507E+00     0.10600E+01     0.00000E+00    -0.59000E-03
     0.59000E-03     0.00000E+00    -0.17900E-02    -0.58700E-02     0.15370E-01
     0.42860E-01     0.17747E+01    -0.15490E-01    -0.64152E+00    -0.27370E-01
    -0.11331E+01     0.00000E+00     0.00000E+00     0.00000E+00     0.00000E+00
     0.00000E+00     0.00000E+00     0.00000E+00     0.00000E+00     0.00000E+00
     0.00000E+00     0.00000E+00     0.00000E+00     0.00000E+00     0.00000E+00
     0.00000E+00     0.00000E+00     0.00000E+00     0.00000E+00     0.00000E+00
     0.00000E+00     0.00000E+00
! Orbital:    13 Occ:  0.000000 from fragment   1
     0.00000E+00     0.00000E+00     0.14106E+00    -0.33999E+00     0.00000E+00
     0.00000E+00    -0.47466E+00     0.11441E+01     0.00000E+00    -0.46800E-01
     0.46800E-01     0.00000E+00    -0.13024E+00     0.30540E-01    -0.73620E-01
     0.76259E+00    -0.11380E-01    -0.29473E+00     0.44000E-02    -0.46786E+00
     0.69800E-02     0.00000E+00     0.00000E+00     0.00000E+00     0.00000E+00
     0.00000E+00     0.00000E+00     0.00000E+00     0.00000E+00     0.00000E+00
     0.00000E+00     0.00000E+00     0.00000E+00     0.00000E+00     0.00000E+00
     0.00000E+00     0.00000E+00     0.00000E+00     0.00000E+00     0.00000E+00
     0.00000E+00     0.00000E+00
! Orbital:    14 Occ:  0.000000 from fragment   1
     0.00000E+00     0.00000E+00    -0.33999E+00    -0.14106E+00     0.00000E+00
     0.00000E+00     0.11441E+01     0.47466E+00     0.00000E+00     0.11280E+00
    -0.11280E+00     0.00000E+00    -0.54040E-01    -0.73620E-01    -0.30540E-01
    -0.99950E-01     0.14900E-02     0.71040E+00    -0.10600E-01    -0.61044E+00
     0.91100E-02     0.00000E+00     0.00000E+00     0.00000E+00     0.00000E+00
     0.00000E+00     0.00000E+00     0.00000E+00     0.00000E+00     0.00000E+00
     0.00000E+00     0.00000E+00     0.00000E+00     0.00000E+00     0.00000E+00
     0.00000E+00     0.00000E+00     0.00000E+00     0.00000E+00     0.00000E+00
     0.00000E+00     0.00000E+00
! Orbital:    15 Occ:  0.000000 from fragment   1
    -0.17360E-01     0.23596E+00     0.00000E+00     0.00000E+00    -0.96000E+00
    -0.13998E+00     0.00000E+00     0.00000E+00     0.10832E+01     0.57980E-01
     0.57980E-01     0.75760E-01     0.00000E+00     0.00000E+00     0.00000E+00
    -0.11268E+00    -0.40950E-01    -0.11268E+00    -0.40950E-01    -0.11268E+00
    -0.40950E-01     0.00000E+00     0.00000E+00     0.00000E+00     0.00000E+00
     0.00000E+00     0.00000E+00     0.00000E+00     0.00000E+00     0.00000E+00
     0.00000E+00     0.00000E+00     0.00000E+00     0.00000E+00     0.00000E+00
     0.00000E+00     0.00000E+00     0.00000E+00     0.00000E+00     0.00000E+00
     0.00000E+00     0.00000E+00
! Orbital:    16 Occ:  0.000000 from fragment   1
     0.66870E-01    -0.60410E+00     0.10000E-04    -0.10000E-04    -0.33030E+00
     0.74412E+00    -0.10000E-04     0.10000E-04     0.41030E-01     0.22860E-01
     0.22860E-01    -0.27765E+00     0.00000E+00     0.00000E+00     0.00000E+00
     0.70762E+00    -0.49727E+00     0.70764E+00    -0.49730E+00     0.70763E+00
    -0.49729E+00     0.00000E+00     0.00000E+00     0.00000E+00     0.00000E+00
     0.00000E+00     0.00000E+00     0.00000E+00     0.00000E+00     0.00000E+00
     0.00000E+00     0.00000E+00     0.00000E+00     0.00000E+00     0.00000E+00
     0.00000E+00     0.00000E+00     0.00000E+00     0.00000E+00     0.00000E+00
     0.00000E+00     0.00000E+00
! Orbital:    17 Occ:  0.000000 from fragment   1
     0.00000E+00     0.00000E+00    -0.95253E+00    -0.38176E+00     0.00000E+00
     0.00000E+00     0.12256E+01     0.49120E+00     0.00000E+00    -0.10258E+00
     0.10258E+00     0.00000E+00     0.47470E-01     0.71280E-01     0.28570E-01
     0.79080E-01    -0.19158E+00    -0.51714E+00     0.12528E+01     0.43807E+00
    -0.10613E+01     0.00000E+00     0.00000E+00     0.00000E+00     0.00000E+00
     0.00000E+00     0.00000E+00     0.00000E+00     0.00000E+00     0.00000E+00
     0.00000E+00     0.00000E+00     0.00000E+00     0.00000E+00     0.00000E+00
     0.00000E+00     0.00000E+00     0.00000E+00     0.00000E+00     0.00000E+00
     0.00000E+00     0.00000E+00
! Orbital:    18 Occ:  0.000000 from fragment   1
     0.00000E+00     0.10000E-04     0.38176E+00    -0.95253E+00     0.00000E+00
    -0.10000E-04    -0.49120E+00     0.12256E+01     0.00000E+00     0.41110E-01
    -0.41110E-01     0.00000E+00     0.11845E+00    -0.28570E-01     0.71280E-01
    -0.55150E+00     0.13360E+01     0.20725E+00    -0.50211E+00     0.34422E+00
    -0.83392E+00     0.00000E+00     0.00000E+00     0.00000E+00     0.00000E+00
     0.00000E+00     0.00000E+00     0.00000E+00     0.00000E+00     0.00000E+00
     0.00000E+00     0.00000E+00     0.00000E+00     0.00000E+00     0.00000E+00
     0.00000E+00     0.00000E+00     0.00000E+00     0.00000E+00     0.00000E+00
     0.00000E+00     0.00000E+00
! Orbital:    19 Occ:  0.000000 from fragment   1
    -0.89270E-01    -0.15714E+01     0.00000E+00     0.00000E+00    -0.17057E+00
     0.42097E+01     0.00000E+00     0.00000E+00     0.77867E+00    -0.41381E+00
    -0.41381E+00    -0.11023E+00     0.00000E+00     0.00000E+00     0.00000E+00
    -0.28956E+00    -0.83045E+00    -0.28956E+00    -0.83045E+00    -0.28956E+00
    -0.83045E+00     0.00000E+00     0.00000E+00     0.00000E+00     0.00000E+00
     0.00000E+00     0.00000E+00     0.00000E+00     0.00000E+00     0.00000E+00
     0.00000E+00     0.00000E+00     0.00000E+00     0.00000E+00     0.00000E+00
     0.00000E+00     0.00000E+00     0.00000E+00     0.00000E+00     0.00000E+00
     0.00000E+00     0.00000E+00
! Orbital:    20 Occ:  0.000000 from fragment   1
     0.00000E+00     0.00000E+00    -0.20250E-01    -0.86100E-02     0.00000E+00
     0.00000E+00    -0.33320E-01    -0.14170E-01     0.00000E+00     0.49134E+00
    -0.49134E+00     0.00000E+00    -0.24131E+00     0.72378E+00     0.30784E+00
     0.44300E-02     0.60000E-04    -0.33640E-01    -0.42000E-03     0.29210E-01
     0.37000E-03     0.00000E+00     0.00000E+00     0.00000E+00     0.00000E+00
     0.00000E+00     0.00000E+00     0.00000E+00     0.00000E+00     0.00000E+00
     0.00000E+00     0.00000E+00     0.00000E+00     0.00000E+00     0.00000E+00
     0.00000E+00     0.00000E+00     0.00000E+00     0.00000E+00     0.00000E+00
     0.00000E+00     0.00000E+00
! Orbital:    21 Occ:  0.000000 from fragment   1
     0.00000E+00     0.00000E+00     0.86100E-02    -0.20250E-01     0.00000E+00
     0.00000E+00     0.14170E-01    -0.33320E-01     0.00000E+00    -0.20898E+00
     0.20898E+00     0.00000E+00    -0.56736E+00    -0.30784E+00     0.72378E+00
    -0.36280E-01    -0.46000E-03     0.14310E-01     0.18000E-03     0.21980E-01
     0.28000E-03     0.00000E+00     0.00000E+00     0.00000E+00     0.00000E+00
     0.00000E+00     0.00000E+00     0.00000E+00     0.00000E+00     0.00000E+00
     0.00000E+00     0.00000E+00     0.00000E+00     0.00000E+00     0.00000E+00
     0.00000E+00     0.00000E+00     0.00000E+00     0.00000E+00     0.00000E+00
     0.00000E+00     0.00000E+00
! Orbital:    22 Occ:  0.000000 from fragment   1
    -0.58850E-01    -0.41742E+00     0.00000E+00     0.00000E+00     0.37680E-01
     0.15247E+01     0.00000E+00     0.00000E+00     0.42182E+00     0.44849E+00
     0.44849E+00    -0.10759E+01     0.00000E+00     0.00000E+00     0.00000E+00
    -0.49948E+00    -0.19440E+00    -0.49948E+00    -0.19440E+00    -0.49948E+00
    -0.19440E+00     0.00000E+00     0.00000E+00     0.00000E+00     0.00000E+00
     0.00000E+00     0.00000E+00     0.00000E+00     0.00000E+00     0.00000E+00
     0.00000E+00     0.00000E+00     0.00000E+00     0.00000E+00     0.00000E+00
     0.00000E+00     0.00000E+00     0.00000E+00     0.00000E+00     0.00000E+00
     0.00000E+00     0.00000E+00
! Orbital:    23 Occ:  0.000000 from fragment   1
     0.00000E+00     0.00000E+00     0.90900E-01     0.37550E-01     0.00000E+00
     0.00000E+00     0.63192E+00     0.26103E+00     0.00000E+00    -0.76412E+00
     0.76412E+00     0.00000E+00     0.36447E+00     0.69105E+00     0.28545E+00
    -0.12511E+00     0.17400E-02     0.87940E+00    -0.12220E-01    -0.75429E+00
     0.10480E-01     0.00000E+00     0.00000E+00     0.00000E+00     0.00000E+00
     0.00000E+00     0.00000E+00     0.00000E+00     0.00000E+00     0.00000E+00
     0.00000E+00     0.00000E+00     0.00000E+00     0.00000E+00     0.00000E+00
     0.00000E+00     0.00000E+00     0.00000E+00     0.00000E+00     0.00000E+00
     0.00000E+00     0.00000E+00
! Orbital:    24 Occ:  0.000000 from fragment   1
     0.00000E+00     0.00000E+00    -0.37550E-01     0.90900E-01     0.00000E+00
     0.00000E+00    -0.26103E+00     0.63192E+00     0.00000E+00     0.31564E+00
    -0.31564E+00     0.00000E+00     0.88233E+00    -0.28545E+00     0.69105E+00
     0.94321E+00    -0.13110E-01    -0.36325E+00     0.50500E-02    -0.57995E+00
     0.80600E-02     0.00000E+00     0.00000E+00     0.00000E+00     0.00000E+00
     0.00000E+00     0.00000E+00     0.00000E+00     0.00000E+00     0.00000E+00
     0.00000E+00     0.00000E+00     0.00000E+00     0.00000E+00     0.00000E+00
     0.00000E+00     0.00000E+00     0.00000E+00     0.00000E+00     0.00000E+00
     0.00000E+00     0.00000E+00
! Orbital:    25 Occ:  0.000000 from fragment   1
    -0.46451E+00     0.11977E+01     0.00000E+00     0.00000E+00    -0.94880E-01
     0.31490E+01     0.00000E+00     0.00000E+00     0.29432E+00    -0.15064E+01
    -0.15064E+01    -0.15161E+01     0.00000E+00     0.00000E+00     0.00000E+00
     0.15330E+00    -0.55967E+00     0.15330E+00    -0.55967E+00     0.15330E+00
    -0.55967E+00     0.00000E+00     0.00000E+00     0.00000E+00     0.00000E+00
     0.00000E+00     0.00000E+00     0.00000E+00     0.00000E+00     0.00000E+00
     0.00000E+00     0.00000E+00     0.00000E+00     0.00000E+00     0.00000E+00
     0.00000E+00     0.00000E+00     0.00000E+00     0.00000E+00     0.00000E+00
     0.00000E+00     0.00000E+00
! Orbital:    26 Occ:  0.000000 from fragment   2
     0.00000E+00     0.00000E+00     0.00000E+00     0.00000E+00     0.00000E+00
     0.00000E+00     0.00000E+00     0.00000E+00     0.00000E+00     0.00000E+00
     0.00000E+00     0.00000E+00     0.00000E+00     0.00000E+00     0.00000E+00
     0.00000E+00     0.00000E+00     0.00000E+00     0.00000E+00     0.00000E+00
     0.00000E+00    -0.52710E-01     0.26840E-01     0.00000E+00     0.00000E+00
     0.33652E+00     0.37302E+00     0.00000E+00     0.00000E+00     0.67890E+00
    -0.18500E-02    -0.18500E-02     0.88100E-02     0.00000E+00     0.00000E+00
     0.00000E+00    -0.41440E-01    -0.85850E-01    -0.41440E-01    -0.85850E-01
    -0.41440E-01    -0.85850E-01
! Orbital:    27 Occ:  0.000000 from fragment   2
     0.00000E+00     0.00000E+00     0.00000E+00     0.00000E+00     0.00000E+00
     0.00000E+00     0.00000E+00     0.00000E+00     0.00000E+00     0.00000E+00
     0.00000E+00     0.00000E+00     0.00000E+00     0.00000E+00     0.00000E+00
     0.00000E+00     0.00000E+00     0.00000E+00     0.00000E+00     0.00000E+00
     0.00000E+00     0.00000E+00     0.00000E+00     0.00000E+00     0.20109E+00
     0.00000E+00     0.00000E+00     0.20000E-04     0.18778E+01     0.00000E+00
     0.00000E+00     0.00000E+00     0.00000E+00     0.23740E-01     0.00000E+00
     0.77900E-02     0.00000E+00    -0.20000E-04    -0.79470E-01    -0.16119E+01
     0.79470E-01     0.16119E+01
! Orbital:    28 Occ:  0.000000 from fragment   2
     0.00000E+00     0.00000E+00     0.00000E+00     0.00000E+00     0.00000E+00
     0.00000E+00     0.00000E+00     0.00000E+00     0.00000E+00     0.00000E+00
     0.00000E+00     0.00000E+00     0.00000E+00     0.00000E+00     0.00000E+00
     0.00000E+00     0.00000E+00     0.00000E+00     0.00000E+00     0.00000E+00
     0.00000E+00     0.00000E+00     0.00000E+00     0.20109E+00     0.00000E+00
     0.00000E+00     0.00000E+00     0.18778E+01    -0.20000E-04     0.00000E+00
    -0.20560E-01     0.20560E-01     0.00000E+00     0.00000E+00     0.77900E-02
     0.00000E+00    -0.91760E-01    -0.18612E+01     0.45880E-01     0.93064E+00
     0.45880E-01     0.93059E+00
! Orbital:    29 Occ:  0.000000 from fragment   2
     0.00000E+00     0.00000E+00     0.00000E+00     0.00000E+00     0.00000E+00
     0.00000E+00     0.00000E+00     0.00000E+00     0.00000E+00     0.00000E+00
     0.00000E+00     0.00000E+00     0.00000E+00     0.00000E+00     0.00000E+00
     0.00000E+00     0.00000E+00     0.00000E+00     0.00000E+00     0.00000E+00
     0.00000E+00    -0.15893E+00     0.17210E+00     0.00000E+00     0.00000E+00
    -0.66340E-01     0.28026E+01     0.00000E+00     0.00000E+00    -0.69802E+00
     0.24920E-01     0.24920E-01     0.34190E-01     0.00000E+00     0.00000E+00
     0.00000E+00    -0.16730E-01    -0.14204E+01    -0.16730E-01    -0.14204E+01
    -0.16730E-01    -0.14204E+01
! Orbital:    30 Occ:  0.000000 from fragment   2
     0.00000E+00     0.00000E+00     0.00000E+00     0.00000E+00     0.00000E+00
     0.00000E+00     0.00000E+00     0.00000E+00     0.00000E+00     0.00000E+00
     0.00000E+00     0.00000E+00     0.00000E+00     0.00000E+00     0.00000E+00
     0.00000E+00     0.00000E+00     0.00000E+00     0.00000E+00     0.00000E+00
     0.00000E+00     0.00000E+00     0.00000E+00     0.00000E+00    -0.10239E+01
     0.00000E+00     0.00000E+00     0.00000E+00     0.10819E+01     0.00000E+00
     0.00000E+00     0.00000E+00     0.00000E+00     0.56260E-01     0.00000E+00
     0.19920E-01     0.00000E+00     0.00000E+00    -0.21432E+00     0.16354E+00
     0.21432E+00    -0.16354E+00
! Orbital:    31 Occ:  0.000000 from fragment   2
     0.00000E+00     0.00000E+00     0.00000E+00     0.00000E+00     0.00000E+00
     0.00000E+00     0.00000E+00     0.00000E+00     0.00000E+00     0.00000E+00
     0.00000E+00     0.00000E+00     0.00000E+00     0.00000E+00     0.00000E+00
     0.00000E+00     0.00000E+00     0.00000E+00     0.00000E+00     0.00000E+00
     0.00000E+00     0.00000E+00     0.00000E+00    -0.10239E+01     0.00000E+00
     0.00000E+00     0.00000E+00     0.10819E+01     0.00000E+00     0.00000E+00
    -0.48720E-01     0.48720E-01     0.00000E+00     0.00000E+00     0.19920E-01
     0.00000E+00    -0.24748E+00     0.18884E+00     0.12374E+00    -0.94420E-01
     0.12374E+00    -0.94420E-01
! Orbital:    32 Occ:  0.000000 from fragment   2
     0.00000E+00     0.00000E+00     0.00000E+00     0.00000E+00     0.00000E+00
     0.00000E+00     0.00000E+00     0.00000E+00     0.00000E+00     0.00000E+00
     0.00000E+00     0.00000E+00     0.00000E+00     0.00000E+00     0.00000E+00
     0.00000E+00     0.00000E+00     0.00000E+00     0.00000E+00     0.00000E+00
     0.00000E+00    -0.32330E-01    -0.27966E+00     0.00000E+00     0.00000E+00
     0.11570E+01     0.73927E+00     0.00000E+00     0.00000E+00    -0.11111E+01
    -0.42340E-01    -0.42340E-01     0.34270E-01     0.00000E+00     0.00000E+00
     0.00000E+00    -0.12841E+00    -0.11869E+00    -0.12841E+00    -0.11869E+00
    -0.12841E+00    -0.11869E+00
! Orbital:    33 Occ:  0.000000 from fragment   2
     0.00000E+00     0.00000E+00     0.00000E+00     0.00000E+00     0.00000E+00
     0.00000E+00     0.00000E+00     0.00000E+00     0.00000E+00     0.00000E+00
     0.00000E+00     0.00000E+00     0.00000E+00     0.00000E+00     0.00000E+00
     0.00000E+00     0.00000E+00     0.00000E+00     0.00000E+00     0.00000E+00
     0.00000E+00    -0.51150E-01    -0.15996E+01     0.00000E+00     0.00000E+00
    -0.34483E+00     0.33314E+01     0.00000E+00     0.00000E+00    -0.15079E+00
    -0.14335E+00    -0.14334E+00    -0.83000E-03     0.00000E+00     0.00000E+00
     0.00000E+00    -0.21929E+00    -0.64541E+00    -0.21929E+00    -0.64542E+00
    -0.21929E+00    -0.64542E+00
! Orbital:    34 Occ:  0.000000 from fragment   2
     0.00000E+00     0.00000E+00     0.00000E+00     0.00000E+00     0.00000E+00
     0.00000E+00     0.00000E+00     0.00000E+00     0.00000E+00     0.00000E+00
     0.00000E+00     0.00000E+00     0.00000E+00     0.00000E+00     0.00000E+00
     0.00000E+00     0.00000E+00     0.00000E+00     0.00000E+00     0.00000E+00
     0.00000E+00     0.00000E+00     0.00000E+00     0.68085E+00     0.00000E+00
     0.00000E+00    -0.10000E-04    -0.12747E+01     0.00000E+00     0.00000E+00
    -0.32054E+00     0.32054E+00     0.00000E+00     0.00000E+00     0.19071E+00
     0.00000E+00    -0.83649E+00     0.16487E+01     0.41824E+00    -0.82435E+00
     0.41824E+00    -0.82436E+00
! Orbital:    35 Occ:  0.000000 from fragment   2
     0.00000E+00     0.00000E+00     0.00000E+00     0.00000E+00     0.00000E+00
     0.00000E+00     0.00000E+00     0.00000E+00     0.00000E+00     0.00000E+00
     0.00000E+00     0.00000E+00     0.00000E+00     0.00000E+00     0.00000E+00
     0.00000E+00     0.00000E+00     0.00000E+00     0.00000E+00     0.00000E+00
     0.00000E+00     0.00000E+00     0.00000E+00     0.00000E+00     0.68085E+00
     0.00000E+00     0.00000E+00     0.00000E+00    -0.12747E+01     0.00000E+00
     0.00000E+00     0.00000E+00     0.00000E+00     0.37012E+00     0.00000E+00
     0.19071E+00     0.00000E+00     0.00000E+00    -0.72442E+00     0.14278E+01
     0.72442E+00    -0.14278E+01
! Orbital:    36 Occ:  0.000000 from fragment   2
     0.00000E+00     0.00000E+00     0.00000E+00     0.00000E+00     0.00000E+00
     0.00000E+00     0.00000E+00     0.00000E+00     0.00000E+00     0.00000E+00
     0.00000E+00     0.00000E+00     0.00000E+00     0.00000E+00     0.00000E+00
     0.00000E+00     0.00000E+00     0.00000E+00     0.00000E+00     0.00000E+00
     0.00000E+00     0.46150E-01    -0.12869E+01     0.00000E+00     0.00000E+00
     0.27389E+00     0.31108E+01     0.00000E+00     0.00000E+00    -0.53442E+00
     0.11799E+00     0.11799E+00    -0.31690E+00     0.00000E+00     0.00000E+00
     0.00000E+00     0.64156E+00    -0.13248E+01     0.64156E+00    -0.13248E+01
     0.64156E+00    -0.13248E+01
! Orbital:    37 Occ:  0.000000 from fragment   2
     0.00000E+00     0.00000E+00     0.00000E+00     0.00000E+00     0.00000E+00
     0.00000E+00     0.00000E+00     0.00000E+00     0.00000E+00     0.00000E+00
     0.00000E+00     0.00000E+00     0.00000E+00     0.00000E+00     0.00000E+00
     0.00000E+00     0.00000E+00     0.00000E+00     0.00000E+00     0.00000E+00
     0.00000E+00     0.00000E+00     0.00000E+00     0.00000E+00    -0.66900E-02
     0.00000E+00     0.00000E+00     0.00000E+00     0.18790E-01     0.00000E+00
     0.00000E+00     0.00000E+00     0.00000E+00    -0.46624E+00     0.00000E+00
     0.88461E+00     0.00000E+00     0.00000E+00    -0.11180E-01    -0.55000E-02
     0.11180E-01     0.55000E-02
! Orbital:    38 Occ:  0.000000 from fragment   2
     0.00000E+00     0.00000E+00     0.00000E+00     0.00000E+00     0.00000E+00
     0.00000E+00     0.00000E+00     0.00000E+00     0.00000E+00     0.00000E+00
     0.00000E+00     0.00000E+00     0.00000E+00     0.00000E+00     0.00000E+00
     0.00000E+00     0.00000E+00     0.00000E+00     0.00000E+00     0.00000E+00
     0.00000E+00     0.00000E+00     0.00000E+00    -0.66900E-02     0.00000E+00
     0.00000E+00     0.00000E+00     0.18790E-01     0.00000E+00     0.00000E+00
     0.40377E+00    -0.40377E+00     0.00000E+00     0.00000E+00     0.88461E+00
     0.00000E+00    -0.12910E-01    -0.63500E-02     0.64500E-02     0.31800E-02
     0.64500E-02     0.31800E-02
! Orbital:    39 Occ:  0.000000 from fragment   2
     0.00000E+00     0.00000E+00     0.00000E+00     0.00000E+00     0.00000E+00
     0.00000E+00     0.00000E+00     0.00000E+00     0.00000E+00     0.00000E+00
     0.00000E+00     0.00000E+00     0.00000E+00     0.00000E+00     0.00000E+00
     0.00000E+00     0.00000E+00     0.00000E+00     0.00000E+00     0.00000E+00
     0.00000E+00     0.66970E-01    -0.83600E-02     0.00000E+00     0.00000E+00
     0.64400E-01    -0.61671E+00     0.00000E+00     0.00000E+00     0.14000E+00
    -0.48563E+00    -0.48563E+00     0.10549E+01     0.00000E+00     0.00000E+00
     0.00000E+00     0.42122E+00     0.51090E-01     0.42122E+00     0.51100E-01
     0.42122E+00     0.51100E-01
! Orbital:    40 Occ:  0.000000 from fragment   2
     0.00000E+00     0.00000E+00     0.00000E+00     0.00000E+00     0.00000E+00
     0.00000E+00     0.00000E+00     0.00000E+00     0.00000E+00     0.00000E+00
     0.00000E+00     0.00000E+00     0.00000E+00     0.00000E+00     0.00000E+00
     0.00000E+00     0.00000E+00     0.00000E+00     0.00000E+00     0.00000E+00
     0.00000E+00     0.00000E+00     0.00000E+00    -0.31315E+00     0.00000E+00
     0.00000E+00     0.00000E+00    -0.20557E+00     0.00000E+00     0.00000E+00
    -0.83585E+00     0.83585E+00     0.00000E+00     0.00000E+00     0.50669E+00