# hf/6-31G*

 hf/6-31G* opted

0 1
 N                 0.000000    0.000000    0.740080
 H                 0.468997   -0.812327    1.098425
 H                -0.937995    0.000000    1.098425
 H                 0.468998    0.812327    1.098425
 B                 0.000000    0.000000   -0.947107
 H                 1.170832    0.000000   -1.246766
 H                -0.585416    1.013970   -1.246766
 H                -0.585416   -1.013970   -1.246766

