# B3LYP/6-31g(d,p) nosymm out=wfn

CH3NH2

0 1
 C                  0.05154300    0.70379000    0.00000000
 H                  0.59336100    1.06456600    0.88042000
 H                  0.59336100    1.06456600   -0.88042000
 H                 -0.94189500    1.18429800    0.00000000
 N                  0.05154300   -0.76117100    0.00000000
 H                 -0.45744500   -1.10398700    0.81143000
 H                 -0.45744500   -1.10398700   -0.81143000

C:\genpromol\CH3NH2\CH3NH2.wfn