%chk=C:\gtest\DA_IRC.chk
#p b3lyp/6-31+g(d) irc=(calcfc,maxpoints=18)

DA adduction

0 1
 C                 -0.26156800    1.56679300    0.69509600
 C                 -0.26156800    1.56679300   -0.69509600
 C                  0.50031400   -0.43279300   -1.43864500
 C                 -0.26156800   -1.32826500   -0.70392000
 C                 -0.26156800   -1.32826500    0.70392000
 H                 -1.19341600    1.44689700   -1.23752300
 H                 -1.19341600    1.44689700    1.23752300
 H                  0.52507600    2.08588200    1.23621300
 H                  0.38154400   -0.37781200    2.51847500
 H                  0.38154400   -0.37781200   -2.51847500
 H                  1.46467600   -0.09643600   -1.07409700
 H                 -1.04094400   -1.89294000   -1.21418700
 H                 -1.04094400   -1.89294000    1.21418700
 H                  1.46467600   -0.09643600    1.07409700
 H                  0.52507600    2.08588200   -1.23621300
 C                  0.50031400   -0.43279300    1.43864500

