#P HF/6-31G* nosymm pop=full IOp(3/32=2)

BH3 for CDA

0 1
 B                     0.        0.        1.5275 
 H                     1.17227   0.        1.79707 
 H                    -0.58614  -1.01522   1.79707 
 H                    -0.58614   1.01522   1.79707 

