#P HF/6-31G* nosymm pop=full IOp(3/33=1,3/32=2)

COBH3 for CDA

0 1
 C                     0.        0.       -0.09962 
 O                     0.        0.       -1.20782 
 B                     0.        0.        1.5275 
 H                     1.17227   0.        1.79707 
 H                    -0.58614  -1.01522   1.79707 
 H                    -0.58614   1.01522   1.79707 

