! RKS HF 6-31g* TightSCF

* xyz 0 1 
 C                     0.        0.       -0.09962 
 O                     0.        0.       -1.20782 
* 
