# b3lyp/6-31g(d) cphf=rdfreq freq=raman

b3lyp/6-31g(d) opted

0 1
 C                  0.15208600   -0.03781700    0.48962400
 C                 -1.04501800    0.61516100   -0.06016600
 O                 -0.82673300   -0.78925700   -0.24320200
 H                  0.15519600   -0.25631800    1.56041400
 H                 -0.95770300    1.22245200   -0.96233300
 H                 -1.87554500    0.87930200    0.59576400
 C                  1.51110300    0.10062100   -0.14865100
 H                  2.08961300    0.89551000    0.33754500
 H                  2.07801300   -0.83315000   -0.05772100
 H                  1.41527000    0.33846800   -1.21290600

140nm 150nm

