# PBE1PBE/6-31g(d) TD density=transition=2 out=wfn

PBE1PBE/6-311G* opted

0 1
 C                  0.00327900   -0.02269800    1.20895200
 C                  0.00327900    1.35685000    1.20846800
 C                  0.00222000    2.07440700    0.00000000
 C                  0.00327900    1.35685000   -1.20846800
 C                  0.00327900   -0.02269800   -1.20895200
 C                  0.00295600   -0.70805300    0.00000000
 H                  0.00229700   -0.58421200    2.13494100
 H                  0.00833000    1.89494100    2.15208000
 H                  0.00833000    1.89494100   -2.15208000
 H                  0.00229700   -0.58421200   -2.13494100
 N                  0.04776100    3.44379400    0.00000000
 H                 -0.21409400    3.92172300    0.84497100
 H                 -0.21409400    3.92172300   -0.84497100
 N                 -0.00058800   -2.16234500    0.00000000
 O                 -0.00206500   -2.72768700   -1.07769000
 O                 -0.00206500   -2.72768700    1.07769000

S0S2.wfn

