%chk=E:\Azobenzene.chk
#P pbe1pbe/6-31g(d) TD(nstates=5) iop(9/40=4)

pbe1pbe/6-31g(d) opted

0 1
 C                 -0.18984100    4.51585300    0.00000000
 C                  1.10113800    3.99491100    0.00000000
 C                  1.29053000    2.61740200    0.00000000
 C                  0.18984100    1.75735600    0.00000000
 C                 -1.10944900    2.28225900    0.00000000
 C                 -1.29157500    3.65642100    0.00000000
 H                 -0.34218800    5.59191200    0.00000000
 H                  1.95936300    4.66120300    0.00000000
 H                  2.28423900    2.17907300    0.00000000
 H                 -1.94924600    1.59527000    0.00000000
 H                 -2.29790100    4.06725100    0.00000000
 N                  0.49896400    0.37896400    0.00000000
 N                 -0.49896400   -0.37896400    0.00000000
 C                 -0.18984100   -1.75735600    0.00000000
 C                 -1.29053000   -2.61740200    0.00000000
 C                  1.10944900   -2.28225900    0.00000000
 C                 -1.10113800   -3.99491100    0.00000000
 H                 -2.28423900   -2.17907300    0.00000000
 C                  1.29157500   -3.65642100    0.00000000
 H                  1.94924600   -1.59527000    0.00000000
 C                  0.18984100   -4.51585300    0.00000000
 H                 -1.95936300   -4.66120300    0.00000000
 H                  2.29790100   -4.06725100    0.00000000
 H                  0.34218800   -5.59191200    0.00000000

