# b3lyp/6-31G* out=wfn Symm=Loose

C60 b3lyp/6-31G*

0 1
 C  -0.72652781    0.99997975    3.32240883
 C  -1.17554669   -0.38195827    3.32240883
 C  -1.42178034    1.95691275    2.59137719
 C  -2.30048807   -0.74747374    2.59137805
 C  -2.30048902   -1.98351714    1.82746069
 C  -0.00000000   -1.23604294    3.32240883
 C  -0.00000047   -2.41887650    2.59137783
 C  -1.17554573   -2.80083577    1.82746102
 C   0.69525113    2.95689222    1.82746186
 C   1.42177968    1.95691208    2.59137805
 C  -0.69525187    2.95689207    1.82746182
 C   0.72652781    0.99997975    3.32240883
 C   1.17554669   -0.38195827    3.32240883
 C   2.59732710    1.57495457    1.82746069
 C   3.02701672    0.25250458    1.82746102
 C   2.30048840   -0.74747350    2.59137783
 C  -0.72652937    3.41885772   -0.59141315
 C   0.72652781    3.41885807   -0.59141307
 C  -1.42177876    3.19295651    0.59141901
 C   1.42178210    3.19295512    0.59141849
 C   2.59732743    2.33887071    0.59141915
 C   1.17554875    2.80083744   -1.82745652
 C   2.30049009    1.98351631   -1.82746024
 C   3.02701679    1.74745481   -0.59141661
 C  -3.02701699    1.74745563   -0.59141315
 C  -2.30048897    1.98351829   -1.82745950
 C  -2.59732830    2.33886977    0.59141901
 C  -1.17554781    2.80083589   -1.82745950
 C   0.00000128    2.41887795   -2.59137647
 C  -2.30049003    0.74747318   -2.59137647
 C  -1.17554669    0.38195827   -3.32240883
 C  -0.00000000    1.23604294   -3.32240883
 C  -3.02701603    0.25250683    1.82746186
 C  -3.47603560   -0.36551773    0.59141849
 C  -2.59732683    1.57495372    1.82746182
 C  -3.47603668    0.36551623   -0.59141307
 C  -3.02701924   -0.25250693   -1.82745652
 C  -3.02701654   -1.74745438    0.59141915
 C  -2.59732792   -2.33887080   -0.59141661
 C  -2.59732665   -1.57495585   -1.82746024
 C   0.72652781   -0.99997975   -3.32240883
 C  -0.72652781   -0.99997975   -3.32240883
 C  -1.42178034   -1.95691676   -2.59137416
 C   1.42178246   -1.95691568   -2.59137381
 C   3.02701926   -0.25250476   -1.82745678
 C   2.30049272    0.74747292   -2.59137416
 C   1.17554669    0.38195827   -3.32240883
 C   2.59732703   -1.57495796   -1.82745787
 C   3.02701702   -1.74745400    0.59141785
 C   3.47603565   -0.36551643    0.59141900
 C   3.47603636    0.36551777   -0.59141399
 C   2.59732671   -2.33887203   -0.59141707
 C   0.72652781   -3.41885724    0.59141785
 C   1.17554642   -2.80083512    1.82746158
 C   2.30048867   -1.98351673    1.82746158
 C   1.42178139   -3.19295570   -0.59141707
 C  -0.69525409   -2.95689466   -1.82745678
 C  -1.42178237   -3.19295583   -0.59141399
 C  -0.72652730   -3.41885715    0.59141900
 C   0.69525584   -2.95689357   -1.82745787

c:\C60.wfn

