#p CCSD/def2SVP density out=wfn

opted at B3LYP/def2TZVP

0 1
 C                  0.00000000    0.00000000    0.18439200
 O                  0.00000000    0.00000000    1.31335300
 B                  0.00000000    0.00000000   -1.33604600
 H                  0.00000000    1.16651000   -1.64431500
 H                 -1.01022700   -0.58325500   -1.64431500
 H                  1.01022700   -0.58325500   -1.64431500

c:\gtest\COBH3\CCSD_CDA\COBH3_CCSD.wfn

