%chk=C:\Fe(CN)6_3-.chk
#p b3lyp/genecp

Title Card Required

-3 2
 Fe                -0.00000000    0.00000000    0.00000000
 C                 -0.79251836   -1.14065626   -1.42938910
 C                 -1.68223396    1.06889922    0.00000000
 C                  0.79251836    1.14065626    1.42938910
 C                  1.68223396   -1.06889922    0.00000000
 C                 -0.79251836   -1.14065626    1.42938910
 C                  0.79251836    1.14065626   -1.42938910
 N                 -1.25033030   -1.81812920    2.27151117
 N                 -1.25033030   -1.81812920   -2.27151117
 N                 -2.66593071    1.70928763    0.00000000
 N                  1.25033030    1.81812920    2.27151117
 N                  2.66593071   -1.70928763    0.00000000
 N                  1.25033030    1.81812920   -2.27151117

Fe
lanl2dz
****
C N
6-31G*
****

Fe
lanl2dz

