 $SYSTEM MWORDS=100 $END
 $CONTRL SCFTYP=RHF RUNTYP=Energy ISPHER=1 $END
 $BASIS GBASIS=CCQ $END
 $DATA
H2CO
C1
C   6.               0.01646410   -0.58657651    0.00000000
H   1.              -0.89975307   -1.13924829    0.00000000
O   8.              -0.00849072    0.71448419    0.00000000
H   1.               0.86889421   -1.05716614    0.00000000
 $END
