%chk=C:\gtest\h2o.chk
# hf/6-31g(d) out=wfn

Title Card Required

0 1
 O                  0.00000000    0.00000000    0.11472000
 H                  0.00000000    0.75403100   -0.45888100
 H                  0.00000000   -0.75403100   -0.45888100

C:\otoboku\H2O.wfn

