%chk=C:\gtest\NH3_SOS.chk
#P CIS(nstates=150)/gen IOp(9/40=5)

CCSD/def2-TZVPPD opted

0 1
 N                  0.00000000    0.00000000    0.11461200
 H                  0.00000000    0.93646700   -0.26742900
 H                 -0.81100400   -0.46823400   -0.26742900
 H                  0.81100400   -0.46823400   -0.26742900

H     0 
S   3   1.00
     34.061341000            0.60251978000E-02      
      5.1235746000           0.45021094000E-01      
      1.1646626000           0.20189726000    
S   1   1.00
      0.32723041000          1.0000000        
S   1   1.00
      0.10307241000          1.0000000        
P   1   1.00
      1.4070000000           1.0000000        
P   1   1.00
      0.38800000000          1.0000000        
P   1   1.00
      0.95774129632E-01            1.0000000        
D   1   1.00
      1.0570000000           1.0000000        
****
N     0 
S   6   1.00
  19730.8006470              0.21887984991E-03      
   2957.8958745              0.16960708803E-02      
    673.22133595             0.87954603538E-02      
    190.68249494             0.35359382605E-01      
     62.295441898            0.11095789217    
     22.654161182            0.24982972552    
S   2   1.00
      8.9791477428           0.40623896148    
      3.6863002370           0.24338217176    
S   1   1.00
      0.84660076805          1.0000000        
S   1   1.00
      0.33647133771          1.0000000        
S   1   1.00
      0.13647653675          1.0000000        
S   1   1.00
      0.68441605847E-01            1.0000000        
P   4   1.00
     49.200380510            0.55552416751E-02      
     11.346790537            0.38052379723E-01      
      3.4273972411           0.14953671029    
      1.1785525134           0.34949305230    
P   1   1.00
      0.41642204972          1.0000000        
P   1   1.00
      0.14260826011          1.0000000        
D   1   1.00
      1.6540000000           1.0000000        
D   1   1.00
      0.46900000000          1.0000000        
D   1   1.00
      0.12829642058          1.0000000        
F   1   1.00
      1.0930000000           1.0000000        
****


