#p b3lyp/6-31g* pop=nboread
 
b3lyp/6-31g* opted
 
0 1
 C                  0.00000000    3.56170400   -0.29631800
 C                  0.00000000    2.83732800    0.87908400
 C                  0.00000000    1.42293800    0.86600900
 C                  0.00000000    0.72894400   -0.38090900
 C                  0.00000000    1.50038200   -1.56687900
 C                  0.00000000    2.88294600   -1.52930700
 C                  0.00000000    0.67978100    2.09387100
 C                  0.00000000   -0.72894400   -0.38090900
 C                  0.00000000   -1.42293800    0.86600900
 C                  0.00000000   -0.67978100    2.09387100
 C                  0.00000000   -2.83732800    0.87908400
 H                  0.00000000   -3.34813100    1.83936800
 C                  0.00000000   -3.56170400   -0.29631800
 C                  0.00000000   -2.88294600   -1.52930700
 C                  0.00000000   -1.50038200   -1.56687900
 H                  0.00000000    1.23270100    3.03031700
 H                  0.00000000    4.64805300   -0.27180500
 H                  0.00000000    3.34813100    1.83936800
 H                  0.00000000    1.00691100   -2.53294500
 H                  0.00000000    3.44695100   -2.45824200
 H                  0.00000000   -1.23270100    3.03031700
 H                  0.00000000   -4.64805300   -0.27180500
 H                  0.00000000   -3.44695100   -2.45824200
 H                  0.00000000   -1.00691100   -2.53294500

$NBO NAOMO $END
 
