#P pw91pw91/6-31G* nosymm pop=full

Title Card Required

0 1
 S                   10.59300000    7.50300000    1.52100000
 S                    8.96700000    9.67800000    2.72000000
 C                    8.45800000    5.78700000    1.96800000
 C                    7.18200000    5.53700000    2.44900000
 C                    6.44100000    6.55100000    3.03600000
 C                    6.95400000    7.82400000    3.13300000
 C                    8.22600000    8.09500000    2.64900000
 C                    8.98400000    7.06100000    2.07700000
 C                   10.50600000    9.18200000    2.03600000
 H                    9.00700000    4.99300000    1.52400000
 H                    6.86800000    4.77600000    2.49900000
 H                    5.62200000    6.47500000    3.34000000
 H                    6.44900000    8.52300000    3.59300000
 S                   11.45500000   11.71600000    2.42700000
 S                   13.08100000    9.54100000    1.22800000
 C                   13.59100000   13.43100000    1.98000000
 C                   14.86600000   13.68100000    1.49900000
 C                   15.60700000   12.66800000    0.91200000
 C                   15.09400000   11.39400000    0.81500000
 C                   13.82200000   11.12400000    1.29900000
 C                   13.06500000   12.15800000    1.87100000
 C                   11.54200000   10.03600000    1.91200000
 H                   13.04200000   14.22600000    2.42400000
 H                   15.18000000   14.44200000    1.44900000
 H                   16.42600000   12.74300000    0.60800000
 H                   15.59900000   10.69600000    0.35500000

