#P MP4(SDQ)/aug-cc-pVTZ density out=wfn

MP2/6-311++G** opted

0 1
 O                 -0.03726500   -1.23986100    0.00000000
 H                  0.34620800   -1.68456000    0.76053300
 H                  0.34620800   -1.68456000   -0.76053300
 F                 -0.03726500    1.42194100    0.00000000
 H                 -0.05891900    0.49054300    0.00000000

c:\gtest\Vn\H2O-HF.wfn

