# MP4(SDQ)/aug-cc-pVTZ density out=wfn

MP2/6-311++G** opted

0 1
 F                 -0.03726500    1.42194100    0.00000000
 H                 -0.05891900    0.49054300    0.00000000

C:\gtest\Vn\HF.wfn

