%chk=./azulene.chk
# b3lyp/6-31G* guess=huckel

b3lyp/6-311G** opted

0 1
 C                  2.01122000   -1.48369900    0.00000000
 C                  2.28623100   -0.11582300    0.00000000
 C                  1.38940500    0.95351700    0.00000000
 C                  0.78491100   -2.14983300    0.00000000
 C                  0.00000000    0.93158400    0.00000000
 C                 -0.50162500   -1.60924600    0.00000000
 C                 -0.89131600   -0.27524700    0.00000000
 H                  2.88534600   -2.12925700    0.00000000
 H                  3.33802200    0.15190100    0.00000000
 H                  1.83749900    1.94475200    0.00000000
 H                  0.83975900   -3.23378400    0.00000000
 H                 -1.31577100   -2.33076500    0.00000000
 C                 -0.84635400    2.05172100    0.00000000
 H                 -0.51673100    3.08123200    0.00000000
 C                 -2.17608700    1.60636200    0.00000000
 H                 -3.04683800    2.24935900    0.00000000
 C                 -2.21035400    0.20403100    0.00000000
 H                 -3.09746700   -0.41364700    0.00000000