%chk=./benzene.chk
# b3lyp/6-31+g* guess=huckel

b3lyp/cc-pvtz opted

0 1
 C                  0.00000000    1.39078800    0.00000000
 C                  1.20445700    0.69539400    0.00000000
 C                  1.20445700   -0.69539400    0.00000000
 C                  0.00000000   -1.39078800    0.00000000
 C                 -1.20445700   -0.69539400    0.00000000
 C                 -1.20445700    0.69539400    0.00000000
 H                  0.00000000    2.47288200    0.00000000
 H                  2.14157800    1.23644100    0.00000000
 H                  2.14157800   -1.23644100    0.00000000
 H                  0.00000000   -2.47288200    0.00000000
 H                 -2.14157800   -1.23644100    0.00000000
 H                 -2.14157800    1.23644100    0.00000000

