%chk=./cyclobutadiene.chk
# b3lyp/6-31+g* guess=huckel

b3lyp/cc-pvtz opted

0 1
 C                 0.66423000    0.78783300    0.00000000 
 C                 0.66423000   -0.78783300    0.00000000 
 C                -0.66423000   -0.78783300    0.00000000 
 C                -0.66423000    0.78783300    0.00000000 
 H                 1.42852400    1.54916200    0.00000000 
 H                 1.42852400   -1.54916200    0.00000000 
 H                -1.42852400   -1.54916200    0.00000000 
 H                -1.42852400    1.54916200    0.00000000 