%chk=./cycloheptatriene.chk
# b3lyp/6-31g* guess=huckel

b3lyp/6-311G** opted

0 1
 C              -1.41775100    0.68087100       0.25558800
 C              -1.41775100   -0.68087100       0.25558800
 C              -0.36016200   -1.52751200      -0.24881100
 C              -0.36016200    1.52751200      -0.24881100
 C               0.95195900   -1.22134500      -0.24881100
 C               0.95195900    1.22134500      -0.24881100
 C               1.48495200    0.00000000       0.45650700
 H              -2.34217000    1.17792800       0.53808200
 H              -2.34217000   -1.17792800       0.53808200
 H              -0.66942600   -2.47626200      -0.68073700
 H              -0.66942600    2.47626200      -0.68073700
 H               1.65431300   -1.87493800      -0.75764400
 H               1.65431300    1.87493800      -0.75764400
 H               1.14031500    0.00000000       1.49914300
 H               2.57598100    0.00000000       0.46681300
