%chk=./porphyrin.chk
# b3lyp/6-31G* guess=huckel

b3lyp/6-311G** opted

0 1
 C                 -2.85304500   -1.08447200    0.00000000
 C                 -4.25413500   -0.67681700    0.00000000
 N                 -2.03108700    0.00000000    0.00000000
 C                 -1.12859900   -2.89133500    0.00000000
 C                 -4.25413500    0.67681700   -0.00000000
 C                 -2.85304500    1.08447200   -0.00000000
 C                 -0.68484500   -4.25445700    0.00000000
 C                 -2.43807300    2.41960900    0.00000000
 N                  0.00000000   -2.11361600   -0.00000000
 C                  1.12859900   -2.89133500   -0.00000000
 C                  0.68484500   -4.25445700   -0.00000000
 C                 -1.12859900    2.89133500   -0.00000000
 C                  2.43807300   -2.41960900    0.00000000
 C                 -0.68484500    4.25445700   -0.00000000
 N                 -0.00000000    2.11361600   -0.00000000
 C                  2.85304500   -1.08447200   -0.00000000
 C                  0.68484500    4.25445700    0.00000000
 C                  1.12859900    2.89133500    0.00000000
 C                  2.43807300    2.41960900   -0.00000000
 C                  4.25413500   -0.67681700   -0.00000000
 N                  2.03108700    0.00000000    0.00000000
 C                  2.85304500    1.08447200    0.00000000
 C                  4.25413500    0.67681700    0.00000000
 C                 -2.43807300   -2.41960900    0.00000000
 H                  1.34347300   -5.10958800    0.00000000
 H                 -1.34347300   -5.10958800    0.00000000
 H                 -5.10167000   -1.34727500    0.00000000
 H                 -5.10167000    1.34727500   -0.00000000
 H                  5.10167000    1.34727500    0.00000000
 H                  5.10167000   -1.34727500   -0.00000000
 H                  1.34347300    5.10958800   -0.00000000
 H                 -1.34347300    5.10958800    0.00000000
 H                 -3.21450500    3.17594700    0.00000000
 H                  3.21450500   -3.17594700    0.00000000
 H                 -3.21450500   -3.17594700    0.00000000
 H                  3.21450500    3.17594700   -0.00000000
 H                  0.00000000    1.10018900    0.00000000
 H                  0.00000000   -1.10018900    0.00000000
