%chk=./propane.chk
# b3lyp/6-31+G* guess=huckel

b3lyp/cc-pvtz opted

0 1
 C                  0.00000000    1.27399900   -0.25906400
 H                  0.88079500    1.31837400   -0.90358100
 H                 -0.88079500    1.31837400   -0.90358100
 H                  0.00000000    2.16917700    0.36499100
 C                  0.00000000    0.00000000    0.58470300
 H                  0.87347400    0.00000000    1.24244900
 H                 -0.87347400    0.00000000    1.24244900
 C                  0.00000000   -1.27399900   -0.25906400
 H                  0.00000000   -2.16917700    0.36499100
 H                 -0.88079500   -1.31837400   -0.90358100
 H                  0.88079500   -1.31837400   -0.90358100
