%chk=./pyracylene.chk
# b3lyp/6-31g* guess=huckel

b3lyp/6-311G** opted

0 1
 C             2.36837100    0.72397400       0.00000000  
 C             1.17960700    1.43855500       0.00000000  
 C             0.00000000    0.67581500       0.00000000  
 C             0.00000000   -0.67581500      -0.00000000  
 C             1.17960700   -1.43855500      -0.00000000  
 C             2.36837100   -0.72397400      -0.00000000  
 H             3.33013600    1.22645700       0.00000000  
 C            -1.17960700    1.43855500       0.00000000  
 C            -1.17960700   -1.43855500      -0.00000000  
 H             3.33013600   -1.22645700      -0.00000000  
 C            -2.36837100   -0.72397400      -0.00000000  
 C            -2.36837100    0.72397400       0.00000000  
 H            -3.33013600   -1.22645700      -0.00000000  
 H            -3.33013600    1.22645700       0.00000000  
 C             0.68174000    2.84470300       0.00000000  
 C            -0.68174000    2.84470300       0.00000000  
 H             1.30296300    3.73004900       0.00000000  
 H            -1.30296300    3.73004900       0.00000000  
 C            -0.68174000   -2.84470300      -0.00000000  
 C             0.68174000   -2.84470300      -0.00000000  
 H            -1.30296300   -3.73004900      -0.00000000  
 H             1.30296300   -3.73004900      -0.00000000  
