%chk=C:\gtest\Li\Li5+.chk
# b3lyp/6-311+g(d) pop=nboread

b3lyp/6-311+G* opted

1 1
 Li                -0.00180800    1.40848000   -0.69649200
 Li                 0.00259400   -1.30839200   -0.87169100
 Li                -0.00056800   -0.10171300    1.56832400
 Li                -2.76113600   -0.00025300   -0.10041300
 Li                 2.76091800    0.00187800    -0.10041300

$NBO DMNAO AONAO $END

