%chk=C:\NH2.chk
# b3lyp/6-31g(d,p) nosymm

NH2 for CDA

0 2
 N                  0.05154300   -0.76117100    0.00000000
 H                 -0.45744500   -1.10398700    0.81143000
 H                 -0.45744500   -1.10398700   -0.81143000

