 #P hf/6-31G* pop=full nosymm guess=cards

Please check this file to ensure validity

  0  1
N     0.00000000    0.00000000    0.74008000
H     0.46899700   -0.81232700    1.09842500
H    -0.93799500    0.00000000    1.09842500
H     0.46899800    0.81232700    1.09842500
B     0.00000000    0.00000000   -0.94710700
H     1.17083200    0.00000000   -1.24676600
H    -0.58541600    1.01397000   -1.24676600
H    -0.58541600   -1.01397000   -1.24676600

5(E16.5)
-1
! Orbital:     1 Occ:  2.000000 from fragment   1
     0.99495E+00     0.24830E-01     0.00000E+00     0.00000E+00     0.14800E-02
    -0.15100E-02     0.00000E+00     0.00000E+00    -0.86000E-03    -0.35300E-02
    -0.35300E-02    -0.33600E-02     0.00000E+00     0.00000E+00     0.00000E+00
     0.22000E-03     0.54000E-03     0.22000E-03     0.54000E-03     0.22000E-03
     0.54000E-03     0.00000E+00     0.00000E+00     0.00000E+00     0.00000E+00
     0.00000E+00     0.00000E+00     0.00000E+00     0.00000E+00     0.00000E+00
     0.00000E+00     0.00000E+00     0.00000E+00     0.00000E+00     0.00000E+00
     0.00000E+00     0.00000E+00     0.00000E+00     0.00000E+00     0.00000E+00
     0.00000E+00     0.00000E+00
! Orbital:     2 Occ:  2.000000 from fragment   1
    -0.19776E+00     0.41078E+00     0.00000E+00     0.00000E+00     0.85760E-01
     0.42908E+00     0.00000E+00     0.00000E+00     0.46420E-01     0.15370E-01
     0.15370E-01    -0.72000E-03     0.00000E+00     0.00000E+00     0.00000E+00
     0.13715E+00     0.10130E-01     0.13715E+00     0.10130E-01     0.13715E+00
     0.10130E-01     0.00000E+00     0.00000E+00     0.00000E+00     0.00000E+00
     0.00000E+00     0.00000E+00     0.00000E+00     0.00000E+00     0.00000E+00
     0.00000E+00     0.00000E+00     0.00000E+00     0.00000E+00     0.00000E+00
     0.00000E+00     0.00000E+00     0.00000E+00     0.00000E+00     0.00000E+00
     0.00000E+00     0.00000E+00
! Orbital:     3 Occ:  2.000000 from fragment   1
     0.00000E+00     0.00000E+00     0.43624E+00     0.18103E+00     0.00000E+00
     0.00000E+00     0.25715E+00     0.10671E+00     0.00000E+00    -0.20030E-01
     0.20030E-01     0.00000E+00     0.96000E-02     0.35360E-01     0.14670E-01
     0.35970E-01     0.21050E-01    -0.25582E+00    -0.14968E+00     0.21985E+00
     0.12863E+00     0.00000E+00     0.00000E+00     0.00000E+00     0.00000E+00
     0.00000E+00     0.00000E+00     0.00000E+00     0.00000E+00     0.00000E+00
     0.00000E+00     0.00000E+00     0.00000E+00     0.00000E+00     0.00000E+00
     0.00000E+00     0.00000E+00     0.00000E+00     0.00000E+00     0.00000E+00
     0.00000E+00     0.00000E+00
! Orbital:     4 Occ:  2.000000 from fragment   1
     0.00000E+00     0.00000E+00    -0.18103E+00     0.43624E+00     0.00000E+00
     0.00000E+00    -0.10671E+00     0.25715E+00     0.00000E+00     0.83100E-02
    -0.83100E-02     0.00000E+00     0.23120E-01    -0.14670E-01     0.35360E-01
    -0.27463E+00    -0.16069E+00     0.10616E+00     0.62120E-01     0.16847E+00
     0.98570E-01     0.00000E+00     0.00000E+00     0.00000E+00     0.00000E+00
     0.00000E+00     0.00000E+00     0.00000E+00     0.00000E+00     0.00000E+00
     0.00000E+00     0.00000E+00     0.00000E+00     0.00000E+00     0.00000E+00
     0.00000E+00     0.00000E+00     0.00000E+00     0.00000E+00     0.00000E+00
     0.00000E+00     0.00000E+00
! Orbital:     5 Occ:  2.000000 from fragment   1
     0.61140E-01    -0.14368E+00     0.00000E+00     0.00000E+00     0.55725E+00
    -0.26125E+00     0.00000E+00     0.00000E+00     0.49552E+00    -0.84100E-02
    -0.84100E-02     0.31150E-01     0.00000E+00     0.00000E+00     0.00000E+00
     0.62860E-01     0.45610E-01     0.62860E-01     0.45610E-01     0.62860E-01
     0.45610E-01     0.00000E+00     0.00000E+00     0.00000E+00     0.00000E+00
     0.00000E+00     0.00000E+00     0.00000E+00     0.00000E+00     0.00000E+00
     0.00000E+00     0.00000E+00     0.00000E+00     0.00000E+00     0.00000E+00
     0.00000E+00     0.00000E+00     0.00000E+00     0.00000E+00     0.00000E+00
     0.00000E+00     0.00000E+00
! Orbital:     6 Occ:  2.000000 from fragment   2
     0.00000E+00     0.00000E+00     0.00000E+00     0.00000E+00     0.00000E+00
     0.00000E+00     0.00000E+00     0.00000E+00     0.00000E+00     0.00000E+00
     0.00000E+00     0.00000E+00     0.00000E+00     0.00000E+00     0.00000E+00
     0.00000E+00     0.00000E+00     0.00000E+00     0.00000E+00     0.00000E+00
     0.00000E+00     0.99626E+00     0.23560E-01     0.00000E+00     0.00000E+00
     0.11200E-02    -0.11600E-01     0.00000E+00     0.00000E+00     0.22000E-03
     0.60000E-04     0.60000E-04    -0.90000E-03     0.00000E+00     0.00000E+00
     0.00000E+00    -0.11000E-03     0.23300E-02    -0.11000E-03     0.23300E-02
    -0.11000E-03     0.23300E-02
! Orbital:     7 Occ:  2.000000 from fragment   2
     0.00000E+00     0.00000E+00     0.00000E+00     0.00000E+00     0.00000E+00
     0.00000E+00     0.00000E+00     0.00000E+00     0.00000E+00     0.00000E+00
     0.00000E+00     0.00000E+00     0.00000E+00     0.00000E+00     0.00000E+00
     0.00000E+00     0.00000E+00     0.00000E+00     0.00000E+00     0.00000E+00
     0.00000E+00    -0.18789E+00     0.30442E+00     0.00000E+00     0.00000E+00
    -0.54370E-01     0.24544E+00     0.00000E+00     0.00000E+00     0.59400E-02
     0.32460E-01     0.32460E-01    -0.66900E-02     0.00000E+00     0.00000E+00
     0.00000E+00     0.16044E+00     0.12553E+00     0.16044E+00     0.12553E+00
     0.16044E+00     0.12553E+00
! Orbital:     8 Occ:  2.000000 from fragment   2
     0.00000E+00     0.00000E+00     0.00000E+00     0.00000E+00     0.00000E+00
     0.00000E+00     0.00000E+00     0.00000E+00     0.00000E+00     0.00000E+00
     0.00000E+00     0.00000E+00     0.00000E+00     0.00000E+00     0.00000E+00
     0.00000E+00     0.00000E+00     0.00000E+00     0.00000E+00     0.00000E+00
     0.00000E+00     0.00000E+00     0.00000E+00     0.40248E+00     0.00000E+00
     0.00000E+00     0.00000E+00     0.14754E+00     0.00000E+00     0.00000E+00
     0.33910E-01    -0.33910E-01     0.00000E+00     0.00000E+00    -0.14070E-01
     0.00000E+00     0.27022E+00     0.30060E+00    -0.13511E+00    -0.15030E+00
    -0.13511E+00    -0.15030E+00
! Orbital:     9 Occ:  2.000000 from fragment   2
     0.00000E+00     0.00000E+00     0.00000E+00     0.00000E+00     0.00000E+00
     0.00000E+00     0.00000E+00     0.00000E+00     0.00000E+00     0.00000E+00
     0.00000E+00     0.00000E+00     0.00000E+00     0.00000E+00     0.00000E+00
     0.00000E+00     0.00000E+00     0.00000E+00     0.00000E+00     0.00000E+00
     0.00000E+00     0.00000E+00     0.00000E+00     0.00000E+00     0.40248E+00
     0.00000E+00     0.00000E+00     0.00000E+00     0.14754E+00     0.00000E+00
     0.00000E+00     0.00000E+00     0.00000E+00    -0.39160E-01     0.00000E+00
    -0.14070E-01     0.00000E+00     0.00000E+00     0.23402E+00     0.26033E+00
    -0.23402E+00    -0.26033E+00
! Orbital:    10 Occ:  0.000000 from fragment   1
    -0.12632E+00     0.10264E+00     0.00000E+00     0.00000E+00     0.14003E+00
     0.20045E+01     0.00000E+00     0.00000E+00     0.47479E+00    -0.39400E-01
    -0.39400E-01    -0.40590E-01     0.00000E+00     0.00000E+00     0.00000E+00
    -0.27940E-01    -0.98346E+00    -0.27940E-01    -0.98346E+00    -0.27940E-01
    -0.98346E+00     0.00000E+00     0.00000E+00     0.00000E+00     0.00000E+00
     0.00000E+00     0.00000E+00     0.00000E+00     0.00000E+00     0.00000E+00
     0.00000E+00     0.00000E+00     0.00000E+00     0.00000E+00     0.00000E+00
     0.00000E+00     0.00000E+00     0.00000E+00     0.00000E+00     0.00000E+00
     0.00000E+00     0.00000E+00
! Orbital:    11 Occ:  0.000000 from fragment   1
     0.00000E+00     0.00000E+00     0.30445E+00     0.12635E+00     0.00000E+00
     0.00000E+00     0.10481E+01     0.43499E+00     0.00000E+00     0.15400E-02
    -0.15400E-02     0.00000E+00    -0.74000E-03     0.15190E-01     0.63100E-02
    -0.56400E-02    -0.23335E+00     0.40110E-01     0.16599E+01    -0.34470E-01
    -0.14266E+01     0.00000E+00     0.00000E+00     0.00000E+00     0.00000E+00
     0.00000E+00     0.00000E+00     0.00000E+00     0.00000E+00     0.00000E+00
     0.00000E+00     0.00000E+00     0.00000E+00     0.00000E+00     0.00000E+00
     0.00000E+00     0.00000E+00     0.00000E+00     0.00000E+00     0.00000E+00
     0.00000E+00     0.00000E+00
! Orbital:    12 Occ:  0.000000 from fragment   1
     0.00000E+00     0.00000E+00    -0.12635E+00     0.30445E+00     0.00000E+00
     0.00000E+00    -0.43499E+00     0.10481E+01     0.00000E+00    -0.64000E-03
     0.64000E-03     0.00000E+00    -0.17700E-02    -0.63100E-02     0.15190E-01
     0.43060E-01     0.17820E+01    -0.16650E-01    -0.68890E+00    -0.26410E-01
    -0.10931E+01     0.00000E+00     0.00000E+00     0.00000E+00     0.00000E+00
     0.00000E+00     0.00000E+00     0.00000E+00     0.00000E+00     0.00000E+00
     0.00000E+00     0.00000E+00     0.00000E+00     0.00000E+00     0.00000E+00
     0.00000E+00     0.00000E+00     0.00000E+00     0.00000E+00     0.00000E+00
     0.00000E+00     0.00000E+00
! Orbital:    13 Occ:  0.000000 from fragment   1
     0.00000E+00     0.00000E+00     0.14110E+00    -0.33997E+00     0.00000E+00
     0.00000E+00    -0.47479E+00     0.11440E+01     0.00000E+00    -0.46810E-01
     0.46810E-01     0.00000E+00    -0.13024E+00     0.30550E-01    -0.73610E-01
     0.76260E+00    -0.11400E-01    -0.29482E+00     0.44100E-02    -0.46778E+00
     0.69900E-02     0.00000E+00     0.00000E+00     0.00000E+00     0.00000E+00
     0.00000E+00     0.00000E+00     0.00000E+00     0.00000E+00     0.00000E+00
     0.00000E+00     0.00000E+00     0.00000E+00     0.00000E+00     0.00000E+00
     0.00000E+00     0.00000E+00     0.00000E+00     0.00000E+00     0.00000E+00
     0.00000E+00     0.00000E+00
! Orbital:    14 Occ:  0.000000 from fragment   1
     0.00000E+00     0.00000E+00    -0.33997E+00    -0.14110E+00     0.00000E+00
     0.00000E+00     0.11440E+01     0.47479E+00     0.00000E+00     0.11279E+00
    -0.11279E+00     0.00000E+00    -0.54050E-01    -0.73610E-01    -0.30550E-01
    -0.99860E-01     0.14900E-02     0.71036E+00    -0.10620E-01    -0.61050E+00
     0.91300E-02     0.00000E+00     0.00000E+00     0.00000E+00     0.00000E+00
     0.00000E+00     0.00000E+00     0.00000E+00     0.00000E+00     0.00000E+00
     0.00000E+00     0.00000E+00     0.00000E+00     0.00000E+00     0.00000E+00
     0.00000E+00     0.00000E+00     0.00000E+00     0.00000E+00     0.00000E+00
     0.00000E+00     0.00000E+00
! Orbital:    15 Occ:  0.000000 from fragment   1
    -0.17360E-01     0.23594E+00     0.00000E+00     0.00000E+00    -0.95999E+00
    -0.13998E+00     0.00000E+00     0.00000E+00     0.10832E+01     0.57980E-01
     0.57980E-01     0.75770E-01     0.00000E+00     0.00000E+00     0.00000E+00
    -0.11270E+00    -0.40940E-01    -0.11270E+00    -0.40940E-01    -0.11270E+00
    -0.40940E-01     0.00000E+00     0.00000E+00     0.00000E+00     0.00000E+00
     0.00000E+00     0.00000E+00     0.00000E+00     0.00000E+00     0.00000E+00
     0.00000E+00     0.00000E+00     0.00000E+00     0.00000E+00     0.00000E+00
     0.00000E+00     0.00000E+00     0.00000E+00     0.00000E+00     0.00000E+00
     0.00000E+00     0.00000E+00
! Orbital:    16 Occ:  0.000000 from fragment   1
     0.66870E-01    -0.60410E+00     0.10000E-04    -0.10000E-04    -0.33033E+00
     0.74418E+00    -0.10000E-04     0.10000E-04     0.41050E-01     0.22860E-01
     0.22860E-01    -0.27765E+00     0.00000E+00     0.00000E+00     0.00000E+00
     0.70762E+00    -0.49729E+00     0.70763E+00    -0.49732E+00     0.70763E+00
    -0.49731E+00     0.00000E+00     0.00000E+00     0.00000E+00     0.00000E+00
     0.00000E+00     0.00000E+00     0.00000E+00     0.00000E+00     0.00000E+00
     0.00000E+00     0.00000E+00     0.00000E+00     0.00000E+00     0.00000E+00
     0.00000E+00     0.00000E+00     0.00000E+00     0.00000E+00     0.00000E+00
     0.00000E+00     0.00000E+00
! Orbital:    17 Occ:  0.000000 from fragment   1
     0.00000E+00     0.00000E+00    -0.94779E+00    -0.39336E+00     0.00000E+00
     0.00000E+00     0.12195E+01     0.50615E+00     0.00000E+00    -0.10207E+00
     0.10207E+00     0.00000E+00     0.48920E-01     0.70920E-01     0.29430E-01
     0.72340E-01    -0.17525E+00    -0.51457E+00     0.12466E+01     0.44224E+00
    -0.10714E+01     0.00000E+00     0.00000E+00     0.00000E+00     0.00000E+00
     0.00000E+00     0.00000E+00     0.00000E+00     0.00000E+00     0.00000E+00
     0.00000E+00     0.00000E+00     0.00000E+00     0.00000E+00     0.00000E+00
     0.00000E+00     0.00000E+00     0.00000E+00     0.00000E+00     0.00000E+00
     0.00000E+00     0.00000E+00
! Orbital:    18 Occ:  0.000000 from fragment   1
     0.00000E+00     0.10000E-04     0.39336E+00    -0.94779E+00     0.00000E+00
    -0.10000E-04    -0.50615E+00     0.12195E+01     0.00000E+00     0.42360E-01
    -0.42360E-01     0.00000E+00     0.11786E+00    -0.29430E-01     0.70920E-01
    -0.55243E+00     0.13383E+01     0.21356E+00    -0.51738E+00     0.33884E+00
    -0.82091E+00     0.00000E+00     0.00000E+00     0.00000E+00     0.00000E+00
     0.00000E+00     0.00000E+00     0.00000E+00     0.00000E+00     0.00000E+00
     0.00000E+00     0.00000E+00     0.00000E+00     0.00000E+00     0.00000E+00
     0.00000E+00     0.00000E+00     0.00000E+00     0.00000E+00     0.00000E+00
     0.00000E+00     0.00000E+00
! Orbital:    19 Occ:  0.000000 from fragment   1
    -0.89270E-01    -0.15714E+01     0.00000E+00     0.00000E+00    -0.17057E+00
     0.42097E+01     0.00000E+00     0.00000E+00     0.77865E+00    -0.41381E+00
    -0.41381E+00    -0.11022E+00     0.00000E+00     0.00000E+00     0.00000E+00
    -0.28957E+00    -0.83046E+00    -0.28957E+00    -0.83045E+00    -0.28957E+00
    -0.83045E+00     0.00000E+00     0.00000E+00     0.00000E+00     0.00000E+00
     0.00000E+00     0.00000E+00     0.00000E+00     0.00000E+00     0.00000E+00
     0.00000E+00     0.00000E+00     0.00000E+00     0.00000E+00     0.00000E+00
     0.00000E+00     0.00000E+00     0.00000E+00     0.00000E+00     0.00000E+00
     0.00000E+00     0.00000E+00
! Orbital:    20 Occ:  0.000000 from fragment   1
     0.00000E+00     0.00000E+00    -0.20340E-01    -0.84400E-02     0.00000E+00
     0.00000E+00    -0.33440E-01    -0.13880E-01     0.00000E+00     0.49315E+00
    -0.49315E+00     0.00000E+00    -0.23633E+00     0.72645E+00     0.30149E+00
     0.47500E-02     0.60000E-04    -0.33760E-01    -0.42000E-03     0.29020E-01
     0.36000E-03     0.00000E+00     0.00000E+00     0.00000E+00     0.00000E+00
     0.00000E+00     0.00000E+00     0.00000E+00     0.00000E+00     0.00000E+00
     0.00000E+00     0.00000E+00     0.00000E+00     0.00000E+00     0.00000E+00
     0.00000E+00     0.00000E+00     0.00000E+00     0.00000E+00     0.00000E+00
     0.00000E+00     0.00000E+00
! Orbital:    21 Occ:  0.000000 from fragment   1
     0.00000E+00     0.00000E+00     0.84400E-02    -0.20340E-01     0.00000E+00
     0.00000E+00     0.13880E-01    -0.33440E-01     0.00000E+00    -0.20467E+00
     0.20467E+00     0.00000E+00    -0.56944E+00    -0.30149E+00     0.72645E+00
    -0.36240E-01    -0.45000E-03     0.14010E-01     0.17000E-03     0.22230E-01
     0.28000E-03     0.00000E+00     0.00000E+00     0.00000E+00     0.00000E+00
     0.00000E+00     0.00000E+00     0.00000E+00     0.00000E+00     0.00000E+00
     0.00000E+00     0.00000E+00     0.00000E+00     0.00000E+00     0.00000E+00
     0.00000E+00     0.00000E+00     0.00000E+00     0.00000E+00     0.00000E+00
     0.00000E+00     0.00000E+00
! Orbital:    22 Occ:  0.000000 from fragment   1
    -0.58850E-01    -0.41742E+00     0.00000E+00     0.00000E+00     0.37690E-01
     0.15247E+01     0.00000E+00     0.00000E+00     0.42182E+00     0.44849E+00
     0.44849E+00    -0.10759E+01     0.00000E+00     0.00000E+00     0.00000E+00
    -0.49948E+00    -0.19440E+00    -0.49948E+00    -0.19440E+00    -0.49948E+00
    -0.19440E+00     0.00000E+00     0.00000E+00     0.00000E+00     0.00000E+00
     0.00000E+00     0.00000E+00     0.00000E+00     0.00000E+00     0.00000E+00
     0.00000E+00     0.00000E+00     0.00000E+00     0.00000E+00     0.00000E+00
     0.00000E+00     0.00000E+00     0.00000E+00     0.00000E+00     0.00000E+00
     0.00000E+00     0.00000E+00
! Orbital:    23 Occ:  0.000000 from fragment   1
     0.00000E+00     0.00000E+00     0.90830E-01     0.37700E-01     0.00000E+00
     0.00000E+00     0.63149E+00     0.26208E+00     0.00000E+00    -0.76360E+00
     0.76360E+00     0.00000E+00     0.36594E+00     0.69057E+00     0.28660E+00
    -0.12354E+00     0.17200E-02     0.87879E+00    -0.12210E-01    -0.75525E+00
     0.10490E-01     0.00000E+00     0.00000E+00     0.00000E+00     0.00000E+00
     0.00000E+00     0.00000E+00     0.00000E+00     0.00000E+00     0.00000E+00
     0.00000E+00     0.00000E+00     0.00000E+00     0.00000E+00     0.00000E+00
     0.00000E+00     0.00000E+00     0.00000E+00     0.00000E+00     0.00000E+00
     0.00000E+00     0.00000E+00
! Orbital:    24 Occ:  0.000000 from fragment   1
     0.00000E+00     0.00000E+00    -0.37700E-01     0.90830E-01     0.00000E+00
     0.00000E+00    -0.26208E+00     0.63149E+00     0.00000E+00     0.31691E+00
    -0.31691E+00     0.00000E+00     0.88173E+00    -0.28660E+00     0.69057E+00
     0.94342E+00    -0.13110E-01    -0.36472E+00     0.50700E-02    -0.57870E+00
     0.80400E-02     0.00000E+00     0.00000E+00     0.00000E+00     0.00000E+00
     0.00000E+00     0.00000E+00     0.00000E+00     0.00000E+00     0.00000E+00
     0.00000E+00     0.00000E+00     0.00000E+00     0.00000E+00     0.00000E+00
     0.00000E+00     0.00000E+00     0.00000E+00     0.00000E+00     0.00000E+00
     0.00000E+00     0.00000E+00
! Orbital:    25 Occ:  0.000000 from fragment   1
    -0.46451E+00     0.11977E+01     0.00000E+00     0.00000E+00    -0.94890E-01
     0.31490E+01     0.00000E+00     0.00000E+00     0.29433E+00    -0.15064E+01
    -0.15064E+01    -0.15161E+01     0.00000E+00     0.00000E+00     0.00000E+00
     0.15330E+00    -0.55968E+00     0.15330E+00    -0.55968E+00     0.15330E+00
    -0.55968E+00     0.00000E+00     0.00000E+00     0.00000E+00     0.00000E+00
     0.00000E+00     0.00000E+00     0.00000E+00     0.00000E+00     0.00000E+00
     0.00000E+00     0.00000E+00     0.00000E+00     0.00000E+00     0.00000E+00
     0.00000E+00     0.00000E+00     0.00000E+00     0.00000E+00     0.00000E+00
     0.00000E+00     0.00000E+00
! Orbital:    26 Occ:  0.000000 from fragment   2
     0.00000E+00     0.00000E+00     0.00000E+00     0.00000E+00     0.00000E+00
     0.00000E+00     0.00000E+00     0.00000E+00     0.00000E+00     0.00000E+00
     0.00000E+00     0.00000E+00     0.00000E+00     0.00000E+00     0.00000E+00
     0.00000E+00     0.00000E+00     0.00000E+00     0.00000E+00     0.00000E+00
     0.00000E+00    -0.52670E-01     0.26920E-01     0.00000E+00     0.00000E+00
     0.33648E+00     0.37273E+00     0.00000E+00     0.00000E+00     0.67898E+00
    -0.18300E-02    -0.18300E-02     0.87700E-02     0.00000E+00     0.00000E+00
     0.00000E+00    -0.41450E-01    -0.85830E-01    -0.41450E-01    -0.85830E-01
    -0.41450E-01    -0.85830E-01
! Orbital:    27 Occ:  0.000000 from fragment   2
     0.00000E+00     0.00000E+00     0.00000E+00     0.00000E+00     0.00000E+00
     0.00000E+00     0.00000E+00     0.00000E+00     0.00000E+00     0.00000E+00
     0.00000E+00     0.00000E+00     0.00000E+00     0.00000E+00     0.00000E+00
     0.00000E+00     0.00000E+00     0.00000E+00     0.00000E+00     0.00000E+00
     0.00000E+00     0.00000E+00     0.00000E+00     0.00000E+00     0.20109E+00
     0.00000E+00     0.00000E+00     0.00000E+00     0.18778E+01     0.00000E+00
     0.00000E+00     0.00000E+00     0.00000E+00     0.23730E-01     0.00000E+00
     0.77600E-02     0.00000E+00     0.00000E+00    -0.79440E-01    -0.16119E+01
     0.79440E-01     0.16119E+01
! Orbital:    28 Occ:  0.000000 from fragment   2
     0.00000E+00     0.00000E+00     0.00000E+00     0.00000E+00     0.00000E+00
     0.00000E+00     0.00000E+00     0.00000E+00     0.00000E+00     0.00000E+00
     0.00000E+00     0.00000E+00     0.00000E+00     0.00000E+00     0.00000E+00
     0.00000E+00     0.00000E+00     0.00000E+00     0.00000E+00     0.00000E+00
     0.00000E+00     0.00000E+00     0.00000E+00     0.20109E+00     0.00000E+00
     0.00000E+00     0.00000E+00     0.18778E+01     0.00000E+00     0.00000E+00
    -0.20550E-01     0.20550E-01     0.00000E+00     0.00000E+00     0.77600E-02
     0.00000E+00    -0.91730E-01    -0.18612E+01     0.45860E-01     0.93062E+00
     0.45860E-01     0.93062E+00
! Orbital:    29 Occ:  0.000000 from fragment   2
     0.00000E+00     0.00000E+00     0.00000E+00     0.00000E+00     0.00000E+00
     0.00000E+00     0.00000E+00     0.00000E+00     0.00000E+00     0.00000E+00
     0.00000E+00     0.00000E+00     0.00000E+00     0.00000E+00     0.00000E+00
     0.00000E+00     0.00000E+00     0.00000E+00     0.00000E+00     0.00000E+00
     0.00000E+00    -0.15893E+00     0.17201E+00     0.00000E+00     0.00000E+00
    -0.66370E-01     0.28028E+01     0.00000E+00     0.00000E+00    -0.69801E+00
     0.24910E-01     0.24910E-01     0.34190E-01     0.00000E+00     0.00000E+00
     0.00000E+00    -0.16750E-01    -0.14204E+01    -0.16750E-01    -0.14204E+01
    -0.16750E-01    -0.14204E+01
! Orbital:    30 Occ:  0.000000 from fragment   2
     0.00000E+00     0.00000E+00     0.00000E+00     0.00000E+00     0.00000E+00
     0.00000E+00     0.00000E+00     0.00000E+00     0.00000E+00     0.00000E+00
     0.00000E+00     0.00000E+00     0.00000E+00     0.00000E+00     0.00000E+00
     0.00000E+00     0.00000E+00     0.00000E+00     0.00000E+00     0.00000E+00
     0.00000E+00     0.00000E+00     0.00000E+00     0.00000E+00    -0.10239E+01
     0.00000E+00     0.00000E+00     0.00000E+00     0.10818E+01     0.00000E+00
     0.00000E+00     0.00000E+00     0.00000E+00     0.56260E-01     0.00000E+00
     0.19950E-01     0.00000E+00     0.00000E+00    -0.21434E+00     0.16363E+00
     0.21434E+00    -0.16363E+00
! Orbital:    31 Occ:  0.000000 from fragment   2
     0.00000E+00     0.00000E+00     0.00000E+00     0.00000E+00     0.00000E+00
     0.00000E+00     0.00000E+00     0.00000E+00     0.00000E+00     0.00000E+00
     0.00000E+00     0.00000E+00     0.00000E+00     0.00000E+00     0.00000E+00
     0.00000E+00     0.00000E+00     0.00000E+00     0.00000E+00     0.00000E+00
     0.00000E+00     0.00000E+00     0.00000E+00    -0.10239E+01     0.00000E+00
     0.00000E+00     0.00000E+00     0.10818E+01     0.00000E+00     0.00000E+00
    -0.48720E-01     0.48720E-01     0.00000E+00     0.00000E+00     0.19950E-01
     0.00000E+00    -0.24750E+00     0.18894E+00     0.12375E+00    -0.94470E-01
     0.12375E+00    -0.94470E-01
! Orbital:    32 Occ:  0.000000 from fragment   2
     0.00000E+00     0.00000E+00     0.00000E+00     0.00000E+00     0.00000E+00
     0.00000E+00     0.00000E+00     0.00000E+00     0.00000E+00     0.00000E+00
     0.00000E+00     0.00000E+00     0.00000E+00     0.00000E+00     0.00000E+00
     0.00000E+00     0.00000E+00     0.00000E+00     0.00000E+00     0.00000E+00
     0.00000E+00    -0.32410E-01    -0.28238E+00     0.00000E+00     0.00000E+00
     0.11565E+01     0.74499E+00     0.00000E+00     0.00000E+00    -0.11114E+01
    -0.42540E-01    -0.42540E-01     0.34200E-01     0.00000E+00     0.00000E+00
     0.00000E+00    -0.12875E+00    -0.11986E+00    -0.12875E+00    -0.11986E+00
    -0.12875E+00    -0.11986E+00
! Orbital:    33 Occ:  0.000000 from fragment   2
     0.00000E+00     0.00000E+00     0.00000E+00     0.00000E+00     0.00000E+00
     0.00000E+00     0.00000E+00     0.00000E+00     0.00000E+00     0.00000E+00
     0.00000E+00     0.00000E+00     0.00000E+00     0.00000E+00     0.00000E+00
     0.00000E+00     0.00000E+00     0.00000E+00     0.00000E+00     0.00000E+00
     0.00000E+00    -0.51100E-01    -0.15991E+01     0.00000E+00     0.00000E+00
    -0.34670E+00     0.33300E+01     0.00000E+00     0.00000E+00    -0.14887E+00
    -0.14329E+00    -0.14329E+00    -0.88000E-03     0.00000E+00     0.00000E+00
     0.00000E+00    -0.21909E+00    -0.64511E+00    -0.21909E+00    -0.64511E+00
    -0.21909E+00    -0.64511E+00
! Orbital:    34 Occ:  0.000000 from fragment   2
     0.00000E+00     0.00000E+00     0.00000E+00     0.00000E+00     0.00000E+00
     0.00000E+00     0.00000E+00     0.00000E+00     0.00000E+00     0.00000E+00
     0.00000E+00     0.00000E+00     0.00000E+00     0.00000E+00     0.00000E+00
     0.00000E+00     0.00000E+00     0.00000E+00     0.00000E+00     0.00000E+00
     0.00000E+00     0.00000E+00     0.00000E+00     0.68091E+00     0.00000E+00
     0.00000E+00    -0.10000E-04    -0.12747E+01     0.00000E+00     0.00000E+00
    -0.32056E+00     0.32056E+00     0.00000E+00     0.00000E+00     0.19062E+00
     0.00000E+00    -0.83649E+00     0.16487E+01     0.41824E+00    -0.82433E+00
     0.41824E+00    -0.82433E+00
! Orbital:    35 Occ:  0.000000 from fragment   2
     0.00000E+00     0.00000E+00     0.00000E+00     0.00000E+00     0.00000E+00
     0.00000E+00     0.00000E+00     0.00000E+00     0.00000E+00     0.00000E+00
     0.00000E+00     0.00000E+00     0.00000E+00     0.00000E+00     0.00000E+00
     0.00000E+00     0.00000E+00     0.00000E+00     0.00000E+00     0.00000E+00
     0.00000E+00     0.00000E+00     0.00000E+00     0.00000E+00     0.68091E+00
     0.00000E+00     0.00000E+00     0.00000E+00    -0.12747E+01     0.00000E+00
     0.00000E+00     0.00000E+00     0.00000E+00     0.37015E+00     0.00000E+00
     0.19062E+00     0.00000E+00     0.00000E+00    -0.72442E+00     0.14278E+01
     0.72442E+00    -0.14278E+01
! Orbital:    36 Occ:  0.000000 from fragment   2
     0.00000E+00     0.00000E+00     0.00000E+00     0.00000E+00     0.00000E+00
     0.00000E+00     0.00000E+00     0.00000E+00     0.00000E+00     0.00000E+00
     0.00000E+00     0.00000E+00     0.00000E+00     0.00000E+00     0.00000E+00
     0.00000E+00     0.00000E+00     0.00000E+00     0.00000E+00     0.00000E+00
     0.00000E+00     0.46150E-01    -0.12869E+01     0.00000E+00     0.00000E+00
     0.27380E+00     0.31109E+01     0.00000E+00     0.00000E+00    -0.53436E+00
     0.11799E+00     0.11800E+00    -0.31692E+00     0.00000E+00     0.00000E+00
     0.00000E+00     0.64155E+00    -0.13249E+01     0.64156E+00    -0.13249E+01
     0.64156E+00    -0.13249E+01
! Orbital:    37 Occ:  0.000000 from fragment   2
     0.00000E+00     0.00000E+00     0.00000E+00     0.00000E+00     0.00000E+00
     0.00000E+00     0.00000E+00     0.00000E+00     0.00000E+00     0.00000E+00
     0.00000E+00     0.00000E+00     0.00000E+00     0.00000E+00     0.00000E+00
     0.00000E+00     0.00000E+00     0.00000E+00     0.00000E+00     0.00000E+00
     0.00000E+00     0.00000E+00     0.00000E+00    -0.66000E-02     0.00000E+00
     0.00000E+00     0.00000E+00     0.18670E-01     0.00000E+00     0.00000E+00
     0.40371E+00    -0.40371E+00     0.00000E+00     0.00000E+00     0.88465E+00
     0.00000E+00    -0.12940E-01    -0.62600E-02     0.64700E-02     0.31300E-02
     0.64700E-02     0.31300E-02
! Orbital:    38 Occ:  0.000000 from fragment   2
     0.00000E+00     0.00000E+00     0.00000E+00     0.00000E+00     0.00000E+00
     0.00000E+00     0.00000E+00     0.00000E+00     0.00000E+00     0.00000E+00
     0.00000E+00     0.00000E+00     0.00000E+00     0.00000E+00     0.00000E+00
     0.00000E+00     0.00000E+00     0.00000E+00     0.00000E+00     0.00000E+00
     0.00000E+00     0.00000E+00     0.00000E+00     0.00000E+00    -0.66000E-02
     0.00000E+00     0.00000E+00     0.00000E+00     0.18670E-01     0.00000E+00
     0.00000E+00     0.00000E+00     0.00000E+00    -0.46617E+00     0.00000E+00
     0.88465E+00     0.00000E+00     0.00000E+00    -0.11200E-01    -0.54200E-02
     0.11200E-01     0.54200E-02
! Orbital:    39 Occ:  0.000000 from fragment   2
     0.00000E+00     0.00000E+00     0.00000E+00     0.00000E+00     0.00000E+00
     0.00000E+00     0.00000E+00     0.00000E+00     0.00000E+00     0.00000E+00
     0.00000E+00     0.00000E+00     0.00000E+00     0.00000E+00     0.00000E+00
     0.00000E+00     0.00000E+00     0.00000E+00     0.00000E+00     0.00000E+00
     0.00000E+00     0.66970E-01    -0.84100E-02     0.00000E+00     0.00000E+00
     0.64480E-01    -0.61665E+00     0.00000E+00     0.00000E+00     0.13995E+00
    -0.48562E+00    -0.48562E+00     0.10549E+01     0.00000E+00     0.00000E+00
     0.00000E+00     0.42123E+00     0.51070E-01     0.42123E+00     0.51070E-01
     0.42123E+00     0.51070E-01
! Orbital:    40 Occ:  0.000000 from fragment   2
     0.00000E+00     0.00000E+00     0.00000E+00     0.00000E+00     0.00000E+00
     0.00000E+00     0.00000E+00     0.00000E+00     0.00000E+00     0.00000E+00
     0.00000E+00     0.00000E+00     0.00000E+00     0.00000E+00     0.00000E+00
     0.00000E+00     0.00000E+00     0.00000E+00     0.00000E+00     0.00000E+00
     0.00000E+00     0.00000E+00     0.00000E+00    -0.31314E+00     0.00000E+00
     0.00000E+00     0.00000E+00    -0.20558E+00     0.00000E+00     0.00000E+00