# hf/6-31G* pop=full nosymm

 hf/6-31G* opted

0 1
 N                 0.000000    0.000000    0.740080
 H                 0.468997   -0.812327    1.098425
 H                -0.937995    0.000000    1.098425
 H                 0.468998    0.812327    1.098425

